
Gurobi 10.0.3 (mac64[arm]) logging started Sat Nov 18 22:02:54 2023

Set parameter Username
Academic license - for non-commercial use only - expires 2024-10-25
Gurobi Optimizer version 10.0.3 build v10.0.3rc0 (mac64[arm])

CPU model: Apple M1 Max
Thread count: 10 physical cores, 10 logical processors, using up to 10 threads

Optimize a model with 2 rows, 3 columns and 5 nonzeros
Model fingerprint: 0x98045aeb
Variable types: 0 continuous, 3 integer (3 binary)
Coefficient statistics:
  Matrix range     [1e+00, 3e+00]
  Objective range  [1e+00, 2e+00]
  Bounds range     [1e+00, 1e+00]
  RHS range        [1e+00, 4e+00]
Found heuristic solution: objective 2.0000000
Presolve removed 2 rows and 3 columns
Presolve time: 0.00s
Presolve: All rows and columns removed

Explored 0 nodes (0 simplex iterations) in 0.00 seconds (0.00 work units)
Thread count was 1 (of 10 available processors)

Solution count 2: 3 2 

Optimal solution found (tolerance 1.00e-04)
Best objective 3.000000000000e+00, best bound 3.000000000000e+00, gap 0.0000%

Gurobi 10.0.3 (mac64[arm]) logging started Sat Nov 18 22:03:12 2023

Set parameter Username
Academic license - for non-commercial use only - expires 2024-10-25
Gurobi Optimizer version 10.0.3 build v10.0.3rc0 (mac64[arm])

CPU model: Apple M1 Max
Thread count: 10 physical cores, 10 logical processors, using up to 10 threads

Optimize a model with 2 rows, 3 columns and 5 nonzeros
Model fingerprint: 0x98045aeb
Variable types: 0 continuous, 3 integer (3 binary)
Coefficient statistics:
  Matrix range     [1e+00, 3e+00]
  Objective range  [1e+00, 2e+00]
  Bounds range     [1e+00, 1e+00]
  RHS range        [1e+00, 4e+00]
Found heuristic solution: objective 2.0000000
Presolve removed 2 rows and 3 columns
Presolve time: 0.00s
Presolve: All rows and columns removed

Explored 0 nodes (0 simplex iterations) in 0.00 seconds (0.00 work units)
Thread count was 1 (of 10 available processors)

Solution count 2: 3 2 

Optimal solution found (tolerance 1.00e-04)
Best objective 3.000000000000e+00, best bound 3.000000000000e+00, gap 0.0000%

Gurobi 10.0.3 (mac64[arm]) logging started Sat Nov 18 22:06:00 2023

Set parameter Username
Academic license - for non-commercial use only - expires 2024-10-25
Gurobi Optimizer version 10.0.3 build v10.0.3rc0 (mac64[arm])

CPU model: Apple M1 Max
Thread count: 10 physical cores, 10 logical processors, using up to 10 threads

Optimize a model with 2 rows, 3 columns and 5 nonzeros
Model fingerprint: 0x98045aeb
Variable types: 0 continuous, 3 integer (3 binary)
Coefficient statistics:
  Matrix range     [1e+00, 3e+00]
  Objective range  [1e+00, 2e+00]
  Bounds range     [1e+00, 1e+00]
  RHS range        [1e+00, 4e+00]
Found heuristic solution: objective 2.0000000
Presolve removed 2 rows and 3 columns
Presolve time: 0.00s
Presolve: All rows and columns removed

Explored 0 nodes (0 simplex iterations) in 0.00 seconds (0.00 work units)
Thread count was 1 (of 10 available processors)

Solution count 2: 3 2 

Optimal solution found (tolerance 1.00e-04)
Best objective 3.000000000000e+00, best bound 3.000000000000e+00, gap 0.0000%

Gurobi 10.0.3 (mac64[arm]) logging started Sat Nov 18 22:06:21 2023

Set parameter Username
Academic license - for non-commercial use only - expires 2024-10-25
Gurobi Optimizer version 10.0.3 build v10.0.3rc0 (mac64[arm])

CPU model: Apple M1 Max
Thread count: 10 physical cores, 10 logical processors, using up to 10 threads

Optimize a model with 2 rows, 3 columns and 5 nonzeros
Model fingerprint: 0x98045aeb
Variable types: 0 continuous, 3 integer (3 binary)
Coefficient statistics:
  Matrix range     [1e+00, 3e+00]
  Objective range  [1e+00, 2e+00]
  Bounds range     [1e+00, 1e+00]
  RHS range        [1e+00, 4e+00]
Found heuristic solution: objective 2.0000000
Presolve removed 2 rows and 3 columns
Presolve time: 0.00s
Presolve: All rows and columns removed

Explored 0 nodes (0 simplex iterations) in 0.00 seconds (0.00 work units)
Thread count was 1 (of 10 available processors)

Solution count 2: 3 2 

Optimal solution found (tolerance 1.00e-04)
Best objective 3.000000000000e+00, best bound 3.000000000000e+00, gap 0.0000%

Gurobi 10.0.3 (mac64[arm]) logging started Sat Nov 18 22:06:26 2023

Set parameter Username
Academic license - for non-commercial use only - expires 2024-10-25
Gurobi Optimizer version 10.0.3 build v10.0.3rc0 (mac64[arm])

CPU model: Apple M1 Max
Thread count: 10 physical cores, 10 logical processors, using up to 10 threads

Optimize a model with 2 rows, 3 columns and 5 nonzeros
Model fingerprint: 0x98045aeb
Variable types: 0 continuous, 3 integer (3 binary)
Coefficient statistics:
  Matrix range     [1e+00, 3e+00]
  Objective range  [1e+00, 2e+00]
  Bounds range     [1e+00, 1e+00]
  RHS range        [1e+00, 4e+00]
Found heuristic solution: objective 2.0000000
Presolve removed 2 rows and 3 columns
Presolve time: 0.00s
Presolve: All rows and columns removed

Explored 0 nodes (0 simplex iterations) in 0.00 seconds (0.00 work units)
Thread count was 1 (of 10 available processors)

Solution count 2: 3 2 

Optimal solution found (tolerance 1.00e-04)
Best objective 3.000000000000e+00, best bound 3.000000000000e+00, gap 0.0000%

Gurobi 10.0.3 (mac64[arm]) logging started Sat Nov 18 22:06:34 2023

Set parameter Username
Academic license - for non-commercial use only - expires 2024-10-25
Gurobi Optimizer version 10.0.3 build v10.0.3rc0 (mac64[arm])

CPU model: Apple M1 Max
Thread count: 10 physical cores, 10 logical processors, using up to 10 threads

Optimize a model with 2 rows, 3 columns and 5 nonzeros
Model fingerprint: 0x98045aeb
Variable types: 0 continuous, 3 integer (3 binary)
Coefficient statistics:
  Matrix range     [1e+00, 3e+00]
  Objective range  [1e+00, 2e+00]
  Bounds range     [1e+00, 1e+00]
  RHS range        [1e+00, 4e+00]
Found heuristic solution: objective 2.0000000
Presolve removed 2 rows and 3 columns
Presolve time: 0.00s
Presolve: All rows and columns removed

Explored 0 nodes (0 simplex iterations) in 0.00 seconds (0.00 work units)
Thread count was 1 (of 10 available processors)

Solution count 2: 3 2 

Optimal solution found (tolerance 1.00e-04)
Best objective 3.000000000000e+00, best bound 3.000000000000e+00, gap 0.0000%

Gurobi 10.0.3 (mac64[arm]) logging started Sat Nov 18 22:06:38 2023

Set parameter Username
Academic license - for non-commercial use only - expires 2024-10-25

Gurobi 10.0.3 (mac64[arm]) logging started Sat Nov 18 22:06:54 2023

Set parameter Username
Academic license - for non-commercial use only - expires 2024-10-25
Gurobi Optimizer version 10.0.3 build v10.0.3rc0 (mac64[arm])

CPU model: Apple M1 Max
Thread count: 10 physical cores, 10 logical processors, using up to 10 threads

Optimize a model with 2 rows, 3 columns and 5 nonzeros
Model fingerprint: 0x98045aeb
Variable types: 0 continuous, 3 integer (3 binary)
Coefficient statistics:
  Matrix range     [1e+00, 3e+00]
  Objective range  [1e+00, 2e+00]
  Bounds range     [1e+00, 1e+00]
  RHS range        [1e+00, 4e+00]
Found heuristic solution: objective 2.0000000
Presolve removed 2 rows and 3 columns
Presolve time: 0.00s
Presolve: All rows and columns removed

Explored 0 nodes (0 simplex iterations) in 0.00 seconds (0.00 work units)
Thread count was 1 (of 10 available processors)

Solution count 2: 3 2 

Optimal solution found (tolerance 1.00e-04)
Best objective 3.000000000000e+00, best bound 3.000000000000e+00, gap 0.0000%

Gurobi 10.0.3 (mac64[arm]) logging started Sat Nov 18 22:09:37 2023

Set parameter Username
Academic license - for non-commercial use only - expires 2024-10-25

Gurobi 10.0.3 (mac64[arm]) logging started Sat Nov 18 22:09:50 2023

Set parameter Username
Academic license - for non-commercial use only - expires 2024-10-25
Gurobi Optimizer version 10.0.3 build v10.0.3rc0 (mac64[arm])

CPU model: Apple M1 Max
Thread count: 10 physical cores, 10 logical processors, using up to 10 threads

Optimize a model with 2 rows, 3 columns and 5 nonzeros
Model fingerprint: 0x98045aeb
Variable types: 0 continuous, 3 integer (3 binary)
Coefficient statistics:
  Matrix range     [1e+00, 3e+00]
  Objective range  [1e+00, 2e+00]
  Bounds range     [1e+00, 1e+00]
  RHS range        [1e+00, 4e+00]
Found heuristic solution: objective 2.0000000
Presolve removed 2 rows and 3 columns
Presolve time: 0.00s
Presolve: All rows and columns removed

Explored 0 nodes (0 simplex iterations) in 0.00 seconds (0.00 work units)
Thread count was 1 (of 10 available processors)

Solution count 2: 3 2 

Optimal solution found (tolerance 1.00e-04)
Best objective 3.000000000000e+00, best bound 3.000000000000e+00, gap 0.0000%

Gurobi 10.0.3 (mac64[arm]) logging started Sat Nov 18 22:10:20 2023

Set parameter Username
Academic license - for non-commercial use only - expires 2024-10-25
Gurobi Optimizer version 10.0.3 build v10.0.3rc0 (mac64[arm])

CPU model: Apple M1 Max
Thread count: 10 physical cores, 10 logical processors, using up to 10 threads

Optimize a model with 2 rows, 3 columns and 5 nonzeros
Model fingerprint: 0x98045aeb
Variable types: 0 continuous, 3 integer (3 binary)
Coefficient statistics:
  Matrix range     [1e+00, 3e+00]
  Objective range  [1e+00, 2e+00]
  Bounds range     [1e+00, 1e+00]
  RHS range        [1e+00, 4e+00]
Found heuristic solution: objective 2.0000000
Presolve removed 2 rows and 3 columns
Presolve time: 0.00s
Presolve: All rows and columns removed

Explored 0 nodes (0 simplex iterations) in 0.00 seconds (0.00 work units)
Thread count was 1 (of 10 available processors)

Solution count 2: 3 2 

Optimal solution found (tolerance 1.00e-04)
Best objective 3.000000000000e+00, best bound 3.000000000000e+00, gap 0.0000%

Gurobi 10.0.3 (mac64[arm]) logging started Sat Nov 18 22:11:31 2023

Set parameter Username
Academic license - for non-commercial use only - expires 2024-10-25

Gurobi 10.0.3 (mac64[arm]) logging started Sat Nov 18 22:11:59 2023

Set parameter Username
Academic license - for non-commercial use only - expires 2024-10-25

Gurobi 10.0.3 (mac64[arm]) logging started Sat Nov 18 22:21:53 2023

Set parameter Username
Academic license - for non-commercial use only - expires 2024-10-25

Gurobi 10.0.3 (mac64[arm]) logging started Sat Nov 18 22:22:13 2023

Set parameter Username
Academic license - for non-commercial use only - expires 2024-10-25

Gurobi 10.0.3 (mac64[arm]) logging started Sat Nov 18 22:22:52 2023

Set parameter Username
Academic license - for non-commercial use only - expires 2024-10-25

Gurobi 10.0.3 (mac64[arm]) logging started Sat Nov 18 22:23:36 2023

Set parameter Username
Academic license - for non-commercial use only - expires 2024-10-25

Gurobi 10.0.3 (mac64[arm]) logging started Sat Nov 18 22:23:52 2023

Set parameter Username
Academic license - for non-commercial use only - expires 2024-10-25

Gurobi 10.0.3 (mac64[arm]) logging started Sat Nov 18 22:24:29 2023

Set parameter Username
Academic license - for non-commercial use only - expires 2024-10-25

Gurobi 10.0.3 (mac64[arm]) logging started Sat Nov 18 22:25:02 2023

Set parameter Username
Academic license - for non-commercial use only - expires 2024-10-25

Gurobi 10.0.3 (mac64[arm]) logging started Sat Nov 18 22:25:13 2023

Set parameter Username
Academic license - for non-commercial use only - expires 2024-10-25

Gurobi 10.0.3 (mac64[arm]) logging started Sat Nov 18 22:26:04 2023

Set parameter Username
Academic license - for non-commercial use only - expires 2024-10-25

Gurobi 10.0.3 (mac64[arm]) logging started Sat Nov 18 22:26:24 2023

Set parameter Username
Academic license - for non-commercial use only - expires 2024-10-25

Gurobi 10.0.0 (win64) logging started Sat Nov 18 22:37:49 2023

Set parameter Username
Academic license - for non-commercial use only - expires 2024-11-07

Gurobi 10.0.0 (win64) logging started Sat Nov 18 22:37:52 2023

Set parameter Username
Academic license - for non-commercial use only - expires 2024-11-07

Gurobi 10.0.0 (win64) logging started Sat Nov 18 22:37:52 2023

Set parameter Username
Academic license - for non-commercial use only - expires 2024-11-07

Gurobi 10.0.0 (win64) logging started Sat Nov 18 22:38:00 2023

Set parameter Username
Academic license - for non-commercial use only - expires 2024-11-07

Gurobi 10.0.0 (win64) logging started Sat Nov 18 22:38:46 2023

Set parameter Username
Academic license - for non-commercial use only - expires 2024-11-07

Gurobi 10.0.0 (win64) logging started Sat Nov 18 22:39:23 2023

Set parameter Username
Academic license - for non-commercial use only - expires 2024-11-07
